words_hard_train/3855.qaiger
aag 81 15 0 1 66
2
4
10
14
18
22
30
32
36
40
44
54
62
136
140
162
6 2 5
8 7 5
12 8 11
16 12 15
20 16 19
24 21 22
26 20 23
28 25 27
34 31 33
38 34 37
42 38 41
46 43 44
48 42 45
50 47 49
52 28 51
56 27 54
58 26 55
60 57 59
64 49 62
66 48 63
68 65 67
70 60 69
72 53 71
74 29 50
76 17 18
78 77 21
80 78 42
82 9 10
84 83 13
86 35 36
88 87 39
90 7 35
92 4 32
94 2 31
96 92 95
98 90 97
100 89 99
102 85 101
104 98 37
106 103 105
108 81 107
110 13 14
112 111 17
114 108 113
116 75 115
118 106 112
120 39 40
122 119 121
124 123 78
126 125 43
128 116 127
130 72 129
132 61 68
134 131 133
138 135 136
142 58 141
144 59 140
146 143 145
148 146 66
150 138 148
152 139 149
154 134 137
156 147 67
158 155 157
160 152 159
162 151 161
i0 1 x1[0]
i1 1 x1[1]
i2 1 x1[2]
i3 1 x1[3]
i4 1 x1[4]
i5 1 x1[5]
i6 2 y1[0]
i7 2 y1[1]
i8 2 y1[2]
i9 2 y1[3]
i10 2 y1[5]
i11 1 x1[6]
i12 2 y1[6]
i13 2 y1[7]
i14 1 x1[7]
o0 bv[0]
c
simplified
  >=
    add
      1 x1
      unary minus
        1
    and
      -17
      2 y1
