words_hard_train/3855.qaiger.qdimacs
p cnf 81 199
a 1 2 5 70 7 9 11 27 0
e 3 4 6 8 10 12 13 14 15 16 17 18 19 20 21 22 23 24 25 26 28 29 30 31 32 33 34 35 36 37 38 39 40 41 42 43 44 45 46 47 48 49 50 51 52 53 54 55 56 57 58 59 60 61 62 63 64 65 66 67 68 69 71 72 73 74 75 76 77 78 79 80 81 0
-1 2 3 0
1 -3 0
-2 -3 0
3 2 4 0
-3 -4 0
-2 -4 0
-4 5 6 0
4 -6 0
-5 -6 0
-6 7 8 0
6 -8 0
-7 -8 0
-8 9 10 0
8 -10 0
-9 -10 0
10 -11 12 0
-10 -12 0
11 -12 0
-10 11 13 0
10 -13 0
-11 -13 0
12 13 14 0
-12 -14 0
-13 -14 0
15 16 17 0
-15 -17 0
-16 -17 0
-17 18 19 0
17 -19 0
-18 -19 0
-19 20 21 0
19 -21 0
-20 -21 0
21 -22 23 0
-21 -23 0
22 -23 0
-21 22 24 0
21 -24 0
-22 -24 0
23 24 25 0
-23 -25 0
-24 -25 0
-14 25 26 0
14 -26 0
-25 -26 0
13 -27 28 0
-13 -28 0
27 -28 0
-13 27 29 0
13 -29 0
-27 -29 0
28 29 30 0
-28 -30 0
-29 -30 0
24 -31 32 0
-24 -32 0
31 -32 0
-24 31 33 0
24 -33 0
-31 -33 0
32 33 34 0
-32 -34 0
-33 -34 0
-30 34 35 0
30 -35 0
-34 -35 0
26 35 36 0
-26 -36 0
-35 -36 0
14 -25 37 0
-14 -37 0
25 -37 0
8 -9 38 0
-8 -38 0
9 -38 0
38 10 39 0
-38 -39 0
-10 -39 0
-39 -21 40 0
39 -40 0
21 -40 0
4 -5 41 0
-4 -41 0
5 -41 0
41 6 42 0
-41 -42 0
-6 -42 0
17 -18 43 0
-17 -43 0
18 -43 0
43 19 44 0
-43 -44 0
-19 -44 0
3 17 45 0
-3 -45 0
-17 -45 0
-2 -16 46 0
2 -46 0
16 -46 0
-1 15 47 0
1 -47 0
-15 -47 0
-46 47 48 0
46 -48 0
-47 -48 0
-45 48 49 0
45 -49 0
-48 -49 0
44 49 50 0
-44 -50 0
-49 -50 0
42 50 51 0
-42 -51 0
-50 -51 0
-49 18 52 0
49 -52 0
-18 -52 0
51 52 53 0
-51 -53 0
-52 -53 0
40 53 54 0
-40 -54 0
-53 -54 0
6 -7 55 0
-6 -55 0
7 -55 0
55 8 56 0
-55 -56 0
-8 -56 0
-54 56 57 0
54 -57 0
-56 -57 0
37 57 58 0
-37 -58 0
-57 -58 0
-53 -56 59 0
53 -59 0
56 -59 0
19 -20 60 0
-19 -60 0
20 -60 0
59 60 61 0
-59 -61 0
-60 -61 0
61 -39 62 0
-61 -62 0
39 -62 0
62 21 63 0
-62 -63 0
-21 -63 0
-58 63 64 0
58 -64 0
-63 -64 0
-36 64 65 0
36 -65 0
-64 -65 0
30 -34 66 0
-30 -66 0
34 -66 0
65 66 67 0
-65 -67 0
-66 -67 0
67 -68 69 0
-67 -69 0
68 -69 0
-29 70 71 0
29 -71 0
-70 -71 0
29 -70 72 0
-29 -72 0
70 -72 0
71 72 73 0
-71 -73 0
-72 -73 0
-73 -33 74 0
73 -74 0
33 -74 0
-69 -74 75 0
69 -75 0
74 -75 0
69 74 76 0
-69 -76 0
-74 -76 0
-67 68 77 0
67 -77 0
-68 -77 0
73 33 78 0
-73 -78 0
-33 -78 0
77 78 79 0
-77 -79 0
-78 -79 0
-76 79 80 0
76 -80 0
-79 -80 0
75 80 81 0
-75 -81 0
-80 -81 0
81 0
